16160.89,43.09,48.95
14195.93,49.06,55.73
14495.57,48.04,54.58
13427.24,51.86,58.92
14200.06,49.04,55.71
14461.89,48.15,54.7
14387.92,48.4,54.98
15647.57,44.51,50.56
13117.62,53.09,60.31
13655.54,51.0,57.93
14733.05,47.27,53.7
14426.64,48.27,54.84
13764.81,50.59,57.47
14538.67,47.9,54.41
14002.79,49.73,56.5
15214.62,45.77,52.0
14533.1,47.92,54.44
14801.4,47.05,53.45
14922.82,46.67,53.01
13268.13,52.49,59.62
